row=10;
column=10;
Board=[|0,0,9,0,0,5,3,0,0,0|0,0,0,1,0,0,0,0,6,0|0,3,0,5,10,8,0,0,9,7|0,8,0,0,9,1,0,2,5,0|0,0,0,0,2,0,5,10,4,0|10,0,0,6,7,2,8,0,0,0|0,9,0,2,0,3,1,5,0,0|0,5,7,9,3,0,2,0,0,6|0,2,6,8,0,10,0,7,1,5|0,0,0,0,1,6,0,0,0,0|];
OE=[|1,0,1,0,0,1,1,0,1,0|0,1,0,1,1,1,0,1,0,0|0,1,1,1,0,0,0,0,1,1|0,0,0,0,1,1,1,0,1,1|1,0,0,1,0,1,1,0,0,1|0,1,1,0,1,0,0,1,1,0|1,1,0,0,0,1,1,1,0,0|0,1,1,1,1,0,0,1,0,0|1,0,0,0,0,0,1,1,1,1|1,0,1,1,1,0,0,0,0,1|];
